p tdp 78 117
1 53
1 56
1 61
2 20
2 49
2 64
3 27
3 31
3 42
4 51
4 60
4 61
5 23
5 38
5 54
6 25
6 28
6 67
7 16
7 29
7 39
8 52
8 53
8 59
9 19
9 34
9 45
10 11
10 72
10 73
11 60
11 65
12 44
12 64
12 76
13 16
13 48
13 55
14 24
14 49
14 67
15 27
15 57
15 72
16 49
17 23
17 35
17 50
18 29
18 35
18 55
19 60
19 78
20 47
20 55
21 28
21 44
21 70
22 46
22 65
22 77
23 59
24 39
24 47
25 40
25 74
26 37
26 71
26 75
27 41
28 54
29 43
30 46
30 63
30 68
31 63
31 77
32 37
32 45
32 50
33 58
33 70
33 76
34 51
34 63
35 56
36 41
36 68
36 77
37 52
38 58
38 67
39 64
40 44
40 58
41 75
42 46
42 66
43 47
43 48
45 62
48 70
50 53
51 73
52 74
54 76
56 74
57 66
57 68
59 71
61 71
62 69
62 73
65 69
66 75
69 78
72 78
